c --- [ banner ] -------------------------------------------------------------
c 
c CaDiCaL Radically Simplified CDCL SAT Solver
c Copyright (c) 2016-2021 A. Biere, M. Fleury, N. Froleyks
c 
c Version 1.5.2 a5f15211db36c3956764e18194dd5bd63bf3b5e6
c g++ (GCC) 9.3.0 -Wall -Wextra -O3 -DNDEBUG
c Fri Oct 21 01:27:37 EDT 2022 Linux gra-login3 3.10.0-1160.66.1.el7.x86_64 x86_64
c 
c --- [ limit ] --------------------------------------------------------------
c 
c setting conflict limit to 200000 conflicts (due to '200000')
c 
c --- [ parsing input ] ------------------------------------------------------
c 
c reading DIMACS file from '33.cubes854.adj'
c opening file to read '33.cubes854.adj'
c found 'p cnf 6160 1595480' header
c parsed 1595480 clauses in 18.00 seconds process time
c closing file '33.cubes854.adj'
c after reading 1457566804 bytes 1390.0 MB
c 
c --- [ options ] ------------------------------------------------------------
c 
c all options are set to their default value
c 
c --- [ solving ] ------------------------------------------------------------
c 
c time measured in process time since initialization
c 
c  seconds    reductions  redundant   irredundant
c          MB     restarts       trail       variables
c            level   conflicts       glue         remaining
c 
c * 18.00 1356  0 0   0    0    0  0% 0 1595422 2462 40%
c { 18.35 1379  0 0   0    0    0  0% 0 1595422 2462 40%
c i 19.15 1415 1690 0   0   22   20 47% 3 1595422 2453 40%
c i 20.97 1454 950 0   2   59   50 36% 6 1595422 2443 40%
c i 21.19 1457 860 0   4   65   55 35% 10 1595422 2440 40%
c i 21.50 1463 802 0   5   70   59 35% 11 1595422 2439 40%
c i 22.46 1469 634 0  10   93   79 32% 21 1595422 2436 40%
c i 23.85 1473 468 0  16  129  100 28% 20 1595422 2435 40%
c i 23.86 1473 464 0  16  130  100 29% 20 1595422 2434 40%
c i 23.86 1473 461 0  16  131  100 29% 20 1595422 2433 39%
c i 23.89 1473 451 0  17  134  102 29% 20 1595422 2432 39%
c i 23.94 1473 445 0  18  136  103 29% 20 1595422 2431 39%
c i 23.95 1473 438 0  18  138  104 29% 20 1595422 2430 39%
c i 23.98 1473 429 0  19  141  106 29% 20 1595422 2429 39%
c i 24.41 1476 391 0  24  156  117 29% 23 1595422 2428 39%
c i 24.41 1476 389 0  24  157  117 29% 22 1595422 2427 39%
c i 24.52 1476 373 0  26  165  123 29% 22 1595422 2426 39%
c i 24.68 1476 370 0  27  168  125 29% 23 1595422 2425 39%
c i 24.77 1476 367 0  28  171  126 29% 22 1595422 2423 39%
c i 25.37 1476 336 0  35  202  147 28% 22 1595422 2422 39%
c 
c  seconds     reductions  redundant    irredundant
c          MB      restarts       trail        variables
c             level   conflicts       glue          remaining
c 
c i 25.47 1476 333 0  36  206  150 28% 23 1595422 2421 39%
c i 25.48 1476 331 0  37  209  152 28% 24 1595422 2420 39%
c i 25.74 1476 322 0  41  222  164 27% 25 1595422 2419 39%
c i 25.93 1476 313 0  42  232  172 27% 26 1595422 2418 39%
c i 25.97 1476 309 0  43  236  175 28% 26 1595422 2417 39%
c i 25.99 1476 307 0  44  237  175 28% 26 1595422 2416 39%
c i 26.00 1476 306 0  44  238  175 28% 26 1595422 2415 39%
c i 26.00 1476 305 0  44  239  175 28% 26 1595422 2414 39%
c i 26.01 1477 303 0  45  240  175 28% 26 1595422 2413 39%
c i 26.02 1477 301 0  45  242  176 28% 26 1595422 2412 39%
c i 26.02 1477 299 0  46  244  177 28% 26 1595422 2411 39%
c i 26.02 1477 297 0  46  246  177 28% 26 1595422 2410 39%
c i 26.07 1477 291 0  48  252  182 28% 26 1595422 2409 39%
c i 26.13 1477 282 0  51  265  190 27% 26 1595422 2408 39%
c i 26.30 1478 271 0  56  285  208 27% 29 1595422 2407 39%
c i 26.32 1478 270 0  56  286  208 27% 29 1595422 2406 39%
c i 26.33 1478 269 0  57  287  208 27% 28 1595422 2405 39%
c i 26.33 1478 268 0  57  288  208 27% 28 1595422 2404 39%
c i 26.33 1478 267 0  57  289  208 27% 28 1595422 2403 39%
c - 30.61 1468 259 1  62  301  217 27% 28 313804 2403 39%
c 
c  seconds     reductions  redundant   irredundant
c          MB      restarts       trail       variables
c             level   conflicts       glue         remaining
c 
c i 30.86 1382 251 1  65  316  231 27% 28 313804 2402 39%
c i 30.95 1382 248 1  65  324  238 27% 27 313804 2392 39%
c i 31.20 1382 241 1  71  353  261 27% 30 313804 2390 39%
c i 31.35 1382 231 1  76  370  276 27% 30 313804 2389 39%
c i 31.35 1382 230 1  76  371  276 27% 30 313804 2388 39%
c i 31.35 1382 230 1  76  372  276 27% 30 313804 2387 39%
c i 31.35 1382 229 1  77  373  276 27% 30 313804 2386 39%
c i 31.35 1382 229 1  77  374  276 27% 29 313804 2385 39%
c i 31.35 1382 228 1  77  375  276 27% 29 313804 2384 39%
c i 31.38 1382 226 1  77  379  278 27% 29 313804 2383 39%
c i 31.50 1382 211 1  77  410  303 28% 29 313804 2382 39%
c i 31.52 1382 209 1  77  414  306 28% 29 313804 2381 39%
c i 31.52 1382 208 1  77  415  306 28% 29 313804 2380 39%
c i 31.52 1382 208 1  77  416  306 28% 29 313804 2379 39%
c i 31.52 1382 207 1  77  417  306 28% 28 313804 2378 39%
c i 31.52 1382 207 1  77  418  306 28% 28 313804 2377 39%
c i 31.52 1382 207 1  77  419  306 28% 28 313804 2376 39%
c i 31.53 1382 206 1  77  421  307 28% 28 313804 2375 39%
c i 31.54 1382 203 1  77  428  313 28% 28 313804 2374 39%
c i 31.54 1382 202 1  77  431  315 28% 28 313804 2373 39%
c 
c  seconds     reductions  redundant   irredundant
c          MB      restarts       trail       variables
c             level   conflicts       glue         remaining
c 
c i 31.54 1382 201 1  77  435  316 28% 28 313804 2370 38%
c i 31.76 1382 194 1  80  467  345 28% 29 313804 2369 38%
c i 31.76 1382 194 1  80  469  346 28% 29 313804 2368 38%
c i 31.78 1382 192 1  80  475  351 28% 28 313804 2367 38%
c i 32.00 1382 183 1  82  511  379 28% 29 313804 2366 38%
c i 32.13 1382 165 1  82  584  431 28% 28 313804 2365 38%
c i 32.13 1382 165 1  82  585  431 28% 28 313804 2364 38%
c i 32.14 1382 164 1  82  587  432 28% 28 313804 2363 38%
c i 32.14 1382 164 1  82  588  432 28% 28 313804 2362 38%
c i 32.14 1382 164 1  82  589  432 28% 28 313804 2361 38%
c i 32.14 1382 163 1  82  594  435 28% 28 313804 2360 38%
c i 32.18 1382 157 1  82  617  452 28% 27 313804 2359 38%
c i 32.19 1382 156 1  82  624  458 28% 27 313804 2358 38%
c i 32.19 1382 156 1  82  625  458 28% 27 313804 2357 38%
c i 32.19 1382 155 1  82  626  458 28% 27 313804 2356 38%
c i 32.19 1382 155 1  82  627  458 28% 27 313804 2355 38%
c i 32.29 1382 143 1  82  695  509 28% 26 313804 2354 38%
c i 32.29 1382 141 1  82  707  519 28% 26 313804 2353 38%
c i 32.45 1381 119 1  82  872  636 28% 24 313804 2352 38%
c i 32.45 1381 118 1  82  880  643 28% 24 313804 2351 38%
c 
c  seconds     reductions  redundant   irredundant
c          MB      restarts       trail       variables
c             level   conflicts       glue         remaining
c 
c i 32.49 1381 113 1  82  932  682 28% 24 313804 2350 38%
c i 32.51 1381 111 1  82  949  691 28% 24 313804 2349 38%
c i 32.56 1381 109 1  82  973  697 28% 24 313804 2348 38%
c i 32.56 1381 109 1  82  974  697 28% 24 313804 2347 38%
c } 32.60 1381 106 1  82 1005  722 28% 23 313804 2347 38%
c [ 32.60 1381  0 1  82 1005  722  0% 0 313804 2347 38%
c O 32.60 1381  0 1  82 1006  722 11% 0 313804 2347 38%
c i 32.60 1381  0 1  82 1006  722 11% 0 313804 2301 37%
c i 32.86 1381 11 1  82 1043  743 23% 8 313804 2300 37%
c i 32.89 1381 12 1  82 1047  746 24% 8 313804 2299 37%
c i 32.93 1381 21 1  82 1060  758 25% 14 313804 2298 37%
c i 32.96 1381 31 1  82 1071  768 25% 18 313804 2297 37%
c i 32.96 1381 31 1  82 1073  768 26% 18 313804 2296 37%
c i 33.17 1381 41 1  82 1123  815 29% 26 313804 2295 37%
c i 33.22 1381 42 1  82 1137  828 29% 27 313804 2294 37%
c i 33.25 1381 44 1  82 1162  850 30% 28 313804 2293 37%
c i 33.26 1381 44 1  82 1163  850 30% 28 313804 2292 37%
c i 33.26 1381 44 1  82 1164  850 30% 28 313804 2291 37%
c i 33.26 1381 43 1  82 1167  852 30% 27 313804 2290 37%
c i 33.27 1381 42 1  82 1182  865 30% 26 313804 2289 37%
c 
c  seconds    reductions  redundant   irredundant
c          MB     restarts       trail       variables
c            level   conflicts       glue         remaining
c 
c i 33.27 1381 42 1  82 1188  870 30% 26 313804 2288 37%
c i 33.28 1381 41 1  82 1194  873 30% 26 313804 2287 37%
c - 34.02 1517 41 2  82 1201  792 30% 26 312746 2287 37%
c i 34.28 1517 38 2  82 1255  827 30% 25 312746 2286 37%
c i 34.33 1517 37 2  82 1281  844 31% 25 312746 2285 37%
c i 34.34 1517 37 2  82 1282  844 31% 25 312746 2284 37%
c i 34.34 1517 37 2  82 1283  844 31% 25 312746 2283 37%
c i 34.34 1517 36 2  82 1284  844 31% 25 312746 2282 37%
c i 34.35 1517 36 2  82 1295  853 31% 24 312746 2281 37%
c i 34.43 1517 30 2  82 1410  903 31% 22 312746 2280 37%
c i 34.46 1517 30 2  82 1460  931 32% 22 312746 2279 37%
c i 34.47 1517 29 2  82 1474  937 32% 22 312746 2278 37%
c i 34.52 1517 28 2  82 1570  995 32% 21 312746 2277 37%
c i 34.52 1517 28 2  82 1572  996 32% 21 312746 2276 37%
c i 34.64 1517 26 2  82 1807 1122 32% 20 312746 2275 37%
c i 34.64 1517 26 2  82 1812 1122 32% 20 312746 2274 37%
c i 34.93 1517 23 2  83 2303 1417 32% 18 312746 2273 37%
c i 35.06 1517 22 2  83 2487 1529 32% 18 312746 2272 37%
c i 35.09 1517 22 2  83 2527 1544 32% 18 312746 2271 37%
c - 35.50 1514 22 3  83 2546 1166 32% 18 312698 2271 37%
c 
c  seconds    reductions  redundant   irredundant
c          MB     restarts       trail       variables
c            level   conflicts       glue         remaining
c 
c i 35.81 1514 22 3  83 2559 1176 55% 18 312698 2270 37%
c ] 36.37 1514 22 3  83 3005 1441 52% 19 312698 2270 37%
c { 36.37 1514 106 3  83 3005 1441 77% 23 312698 2270 37%
c F 36.43 1514 106 3  83 3008 1444 77% 23 312698 2270 37%
c i 36.57 1514 105 3  83 3016 1450 77% 23 312698 2269 37%
c i 36.79 1514 101 3  83 3067 1491 75% 23 312698 2268 37%
c i 36.83 1514 101 3  83 3070 1493 75% 23 312698 2267 37%
c i 36.84 1514 101 3  83 3074 1495 75% 23 312698 2266 37%
c i 36.93 1514 100 3  83 3096 1515 74% 23 312698 2265 37%
c i 37.01 1514 98 3  84 3134 1547 73% 23 312698 2264 37%
c i 37.26 1514 97 3  90 3166 1577 72% 23 312698 2263 37%
c i 37.50 1514 96 3  98 3212 1610 71% 23 312698 2262 37%
c i 37.50 1514 96 3  98 3213 1610 71% 23 312698 2261 37%
c i 37.76 1514 95 3 102 3252 1643 70% 23 312698 2260 37%
c i 37.85 1514 95 3 104 3267 1654 70% 24 312698 2259 37%
c i 37.92 1514 95 3 108 3277 1662 69% 24 312698 2258 37%
c i 38.28 1514 94 3 119 3321 1699 69% 24 312698 2257 37%
c i 39.35 1514 92 3 145 3454 1807 66% 25 312698 2256 37%
c i 39.36 1514 92 3 146 3462 1812 66% 25 312698 2255 37%
c i 39.84 1514 91 3 167 3538 1874 65% 26 312698 2254 37%
c 
c  seconds    reductions  redundant   irredundant
c          MB     restarts       trail       variables
c            level   conflicts       glue         remaining
c 
c i 39.84 1514 91 3 167 3539 1874 65% 26 312698 2253 37%
c i 40.54 1514 91 3 181 3600 1927 64% 26 312698 2252 37%
c i 41.42 1514 89 3 200 3728 2014 62% 26 312698 2251 37%
c i 41.49 1514 89 3 202 3739 2023 62% 26 312698 2250 37%
c - 42.76 1510 71 4 203 4340 1798 58% 23 312635 2250 37%
c i 43.48 1510 61 4 203 4856 2132 56% 21 312635 2249 37%
c i 43.53 1510 61 4 203 4876 2150 56% 21 312635 2248 36%
c 3 44.88 1510 61 4 233 5000 3205 55% 22 312597 2232 36%
c p 50.98 1510 61 4 233 5000 6125 55% 22 312597 2177 35%
c d 51.41 1510 61 4 233 5000 5984 55% 22 243009 2176 35%
c # 53.72 1510 51 4 244 6009 6694 53% 21 243009 2176 35%
c - 55.10 1383 48 5 244 6583 2682 52% 21 243009 2176 35%
c } 55.58 1383 46 5 244 7005 2951 52% 21 243009 2176 35%
c [ 55.58 1383 22 5 244 7005 2951 52% 19 243009 2176 35%
c - 57.54 1384 21 6 245 9077 2744 49% 18 243009 2176 35%
c ] 57.74 1384 21 6 246 9367 2944 49% 18 243009 2176 35%
c 1 57.74 1384 21 6 246 9367 2944 49% 18 243009 2176 35%
c 
c --- [ writing output ] -----------------------------------------------------
c 
c writing simplified CNF to DIMACS file 'simp/33.cubes854.adj.simp1'
c * 57.74 1384 21 6 246 9367 2944 49% 18 243009 2176 35%
c opening file to write 'simp/33.cubes854.adj.simp1'
c writing 'p cnf 6160 243009' header
c closing file 'simp/33.cubes854.adj.simp1'
c after writing 113837354 bytes 108.6 MB
c wrote 243009 clauses in 0.81 seconds process time
c 
c --- [ writing extension ] --------------------------------------------------
c 
c writing extension stack to 'simp/33.cubes854.adj.ext1'
c opening file to write 'simp/33.cubes854.adj.ext1'
c closing file 'simp/33.cubes854.adj.ext1'
c after writing 12871 bytes 0.0 MB
c wrote 857 witnesses in 0.00 seconds process time
c 
c --- [ result ] -------------------------------------------------------------
c 
s SATISFIABLE
c 
c --- [ run-time profiling ] -------------------------------------------------
c 
c process time taken by individual solving procedures
c (percentage relative to process time for solving)
c 
c        32.65   82.14% search
c        26.36   66.32% unstable
c        18.00   45.28% parse
c         7.10   17.86% simplify
c         6.04   15.19% probe
c         5.93   14.92% stable
c         0.35    0.89% lucky
c         0.05    0.14% ternary
c   =================================
c        39.75   67.88% solve
c 
c last line shows process time for solving
c (percentage relative to total process time)
c 
c --- [ statistics ] ---------------------------------------------------------
c 
c chronological:              2142        22.87 %  of conflicts
c conflicts:                  9367       235.67    per second
c decisions:                 39863      1002.96    per second
c fixed:                       823        13.36 %  of all variables
c learned:                    9167        97.86 %  per conflict
c learned_lits:            1486883       100.00 %  learned literals
c minimized:                     0         0.00 %  learned literals
c shrunken:                1042880        70.14 %  learned literals
c minishrunken:              58463         3.93 %  learned literals
c propagations:            1551300         0.04 M  per second
c reduced:                    3369        35.97 %  per conflict
c rephased:                      3      3122.33    interval
c restarts:                    246        38.08    interval
c stabilizing:                   2        46.57 %  of conflicts
c substituted:                  17         0.28 %  of all variables
c subsumed:                   2847         0.08 %  of all clauses
c ternary:                     948         0.53 %  of resolved
c weakened:                     34         2.00    average size
c 
c seconds are measured in process time for solving
c 
c --- [ resources ] ----------------------------------------------------------
c 
c total process time since initialization:        58.56    seconds
c total real time since initialization:           58.62    seconds
c maximum resident set size of process:         1649.89    MB
c 
c --- [ shutting down ] ------------------------------------------------------
c 
c exit 10
WARNING! DIMACS header mismatch: wrong number of variables.
============================[ Problem Statistics ]=============================
|                                                                             |
|  Number of variables:          6120                                         |
|  Number of clauses:          243009                                         |
|  Parse time:                   1.53 s                                       |
|  Simplification time:          0.03 s                                       |
|                                                                             |
============================[ Search Statistics ]====================================================
| Conflicts |          ORIGINAL         |          LEARNT          | Num Sols |      SUBGRAPHS      |
|           |    Vars  Clauses Literals |    Limit  Clauses Lit/Cl |          | Canonical Noncanon. |
=====================================================================================================
|       119 |    6029   243028 24450443 |     2000      119     65 |        0 |        37        19 |
|       270 |    6029   243029 24450456 |     2000      270     69 |        0 |        53        20 |
|       561 |    6029   243095 24452092 |     2000      561     70 |        0 |        74        86 |
|       969 |    6029   243166 24453279 |     2000      969     54 |        0 |        96       157 |
|      1629 |    6029   243320 24456494 |     2000     1629     58 |        0 |       171       311 |
|      2402 |    6029   243334 24456850 |     3602     1404     40 |        0 |       178       325 |
|      3809 |    6029   243602 24461944 |     3602     2811     60 |        0 |       207       593 |
|      5733 |    6029   243818 24465830 |     5005     2938     46 |        0 |       333       809 |
|      8500 |    6029   244023 24470715 |     6306     3206     41 |        0 |       524      1014 |
|     12842 |    6029   244521 24482776 |     7557     4399     42 |        0 |       756      1512 |
|     18813 |    6029   244726 24487939 |     8782     6595     59 |        0 |       901      1717 |
|     28228 |    6029   245492 24501138 |    11205     6633     46 |        0 |      1318      2483 |
|     42725 |    6029   247015 24530971 |    13612     9337     53 |        0 |      2075      4006 |
|     62370 |    6029   247199 24535401 |    16013    14783     65 |        0 |      2376      4190 |
|     91904 |    6029   247541 24543082 |    19611    18515     68 |        0 |      2804      4532 |
|    136285 |    6029   248133 24558590 |    24414    20099     63 |        0 |      3605      5124 |
|    202963 |    6029   249127 24582282 |    30414    19777     56 |        0 |      4922      6118 |
|    302839 |    6029   250477 24608946 |    37616    19455     41 |        0 |      6499      7468 |
|    451536 |    6029   251385 24636677 |    46008    23944     42 |        0 |      8082      8376 |
|    679842 |    6029   258008 24746622 |    55613    51455     79 |        0 |     14328     14999 |
|   1018629 |    6029   264270 24843121 |    68809    51438     62 |        0 |     17768     21261 |
|   1530865 |    6029   277718 25143330 |    84413    69678     67 |        0 |     30361     34709 |
|   2294427 |    6029   293098 25475620 |   103615    86042     60 |        0 |     51627     50089 |
|   3462621 |    6014   286677 25288992 |   127605   104226     66 |        0 |    100083     96009 |
|   5214801 |    6014   355446 26789198 |   157629    81430     34 |        0 |    158854    164778 |
|   7849370 |    5981   354312 26940016 |   191839   122834     70 |        0 |    252012    274231 |
=====================================================================================================
Number of solutions   : 0
Canonical subgraphs   : 266046         (54 /sec)
          order  3    : 1              (200000 /sec)
          order  4    : 1              (500000 /sec)
          order  5    : 1              (200000 /sec)
          order  6    : 1              (55556 /sec)
          order  7    : 1              (7812 /sec)
          order  8    : 1              (2123 /sec)
          order  9    : 3              (957 /sec)
          order 10    : 12             (503 /sec)
          order 11    : 79             (315 /sec)
          order 12    : 462            (183 /sec)
          order 13    : 3150           (142 /sec)
          order 14    : 21328          (86 /sec)
          order 15    : 90609          (61 /sec)
          order 16    : 80375          (49 /sec)
          order 17    : 47839          (43 /sec)
          order 18    : 12996          (46 /sec)
          order 19    : 3843           (54 /sec)
          order 20    : 2626           (57 /sec)
          order 21    : 2718           (55 /sec)
          order 22    : 0              (-nan /sec)
Noncanonical subgraphs: 293148         (337 /sec)
          order  3    : 0              (-nan /sec)
          order  4    : 0              (-nan /sec)
          order  5    : 0              (-nan /sec)
          order  6    : 0              (-nan /sec)
          order  7    : 0              (-nan /sec)
          order  8    : 0              (-nan /sec)
          order  9    : 0              (-nan /sec)
          order 10    : 0              (-nan /sec)
          order 11    : 0              (-nan /sec)
          order 12    : 0              (-nan /sec)
          order 13    : 3415           (7380 /sec)
          order 14    : 104675         (763 /sec)
          order 15    : 97708          (435 /sec)
          order 16    : 84094          (186 /sec)
          order 17    : 317            (732 /sec)
          order 18    : 21             (344 /sec)
          order 19    : 10             (152 /sec)
          order 20    : 1              (727 /sec)
          order 21    : 11             (176 /sec)
Canonicity checking   : 4965.66 s
Noncanonicity checking: 870.861 s
Total canonicity time : 5836.52 s
database reductions   : 162
restarts              : 13307
conflicts             : 8219533        (593 /sec)
decisions             : 10046418       (0.00 % random) (725 /sec)
propagations          : 919231463      (66355 /sec)
conflict literals     : 899483412      (54.13 % deleted)
actual reward         : 0.114448
Memory used           : 427.00 MB
CPU time              : 13853.3 s

UNSATISFIABLE
